# Statics stability
	
atom_style      atomic
units           metal
boundary        f f f
	                
read_data       x.txt
                
newton on
pair_style      airebo 2.0 1 0
pair_coeff      * * ./CH.airebo C H
                              
neighbor        2.0 bin
neigh_modify    every 1 

thermo					1
dump						1 all atom 1000000 dump.lammpstrj
minimize				0.000001 0.000001 1000 1000

# End of file
